Zr24 H256 C192 O128
1.0
  20.8002000000000000    0.0000000000000000    0.0000000000000000
   0.0000000000000000   20.8002000000000000    0.0000000000000000
   0.0000000000000000    0.0000000000000000   20.8002000000000000
Zr H C O
24 256 192 128
direct
   0.3832000000000000    0.5000000000000000    0.0000000000000000 Zr
   0.5000000000000000    0.3832000000000000    0.0000000000000000 Zr
   0.5000000000000000    0.5000000000000000    0.8832000000000000 Zr
   0.5000000000000000    0.6168000000000000    0.0000000000000000 Zr
   0.6168000000000000    0.5000000000000000    0.0000000000000000 Zr
   0.5000000000000000    0.5000000000000000    0.1168000000000000 Zr
   0.6168000000000000    0.0000000000000000    0.5000000000000000 Zr
   0.5000000000000000    0.1168000000000000    0.5000000000000000 Zr
   0.5000000000000000    0.0000000000000000    0.3832000000000000 Zr
   0.3832000000000000    0.0000000000000000    0.5000000000000000 Zr
   0.5000000000000000    0.0000000000000000    0.6168000000000000 Zr
   0.5000000000000000    0.8832000000000000    0.5000000000000000 Zr
   0.0000000000000000    0.0000000000000000    0.8832000000000000 Zr
   0.8832000000000000    0.0000000000000000    0.0000000000000000 Zr
   0.0000000000000000    0.8832000000000000    0.0000000000000000 Zr
   0.0000000000000000    0.1168000000000000    0.0000000000000000 Zr
   0.1168000000000000    0.0000000000000000    0.0000000000000000 Zr
   0.0000000000000000    0.0000000000000000    0.1168000000000000 Zr
   0.0000000000000000    0.3832000000000000    0.5000000000000000 Zr
   0.0000000000000000    0.6168000000000000    0.5000000000000000 Zr
   0.1168000000000000    0.5000000000000000    0.5000000000000000 Zr
   0.0000000000000000    0.5000000000000000    0.6168000000000000 Zr
   0.8832000000000000    0.5000000000000000    0.5000000000000000 Zr
   0.0000000000000000    0.5000000000000000    0.3832000000000000 Zr
   0.3969790000000000    0.2940990000000000    0.7899200000000000 H
   0.4425461000000000    0.2285650000000000    0.8205540000000000 H
   0.6030210000000000    0.2940990000000000    0.7899200000000000 H
   0.5574539000000001    0.2285650000000000    0.8205540000000000 H
   0.5000000000000000    0.3417110000000000    0.7483409999999999 H
   0.6030210000000000    0.2059010000000000    0.7100800000000000 H
   0.5574539000000001    0.2714350000000000    0.6794460000000000 H
   0.3969790000000000    0.2059010000000000    0.7100800000000000 H
   0.4425461000000000    0.2714350000000000    0.6794460000000000 H
   0.5000000000000000    0.1582890000000000    0.7516590000000001 H
   0.2940990000000000    0.7899200000000000    0.3969790000000000 H
   0.2285650000000000    0.8205540000000000    0.4425461000000000 H
   0.2940990000000000    0.7899200000000000    0.6030210000000000 H
   0.2285650000000000    0.8205540000000000    0.5574539000000001 H
   0.3417110000000000    0.7483409999999999    0.5000000000000000 H
   0.2059010000000000    0.7100800000000000    0.6030210000000000 H
   0.2714350000000000    0.6794460000000000    0.5574539000000001 H
   0.2059010000000000    0.7100800000000000    0.3969790000000000 H
   0.2714350000000000    0.6794460000000000    0.4425461000000000 H
   0.1582890000000000    0.7516590000000001    0.5000000000000000 H
   0.7899200000000000    0.6030210000000000    0.2940990000000000 H
   0.8205540000000000    0.5574539000000001    0.2285650000000000 H
   0.7899200000000000    0.3969790000000000    0.2940990000000000 H
   0.8205540000000000    0.4425461000000000    0.2285650000000000 H
   0.7483409999999999    0.5000000000000000    0.3417110000000000 H
   0.7100800000000000    0.6030210000000000    0.2059010000000000 H
   0.6794460000000000    0.5574539000000001    0.2714350000000000 H
   0.7100800000000000    0.3969790000000000    0.2059010000000000 H
   0.6794460000000000    0.4425461000000000    0.2714350000000000 H
   0.7516590000000001    0.5000000000000000    0.1582890000000000 H
   0.2059010000000000    0.7899200000000000    0.1030210000000000 H
   0.2714350000000000    0.8205540000000000    0.0574539000000000 H
   0.2059010000000000    0.7899200000000000    0.8969790000000000 H
   0.2714350000000000    0.8205540000000000    0.9425460999999999 H
   0.1582890000000000    0.7483409999999999    0.0000000000000000 H
   0.2940990000000000    0.7100800000000000    0.1030210000000000 H
   0.2285650000000000    0.6794460000000000    0.0574539000000000 H
   0.2940990000000000    0.7100800000000000    0.8969790000000000 H
   0.2285650000000000    0.6794460000000000    0.9425460999999999 H
   0.3417110000000000    0.7516590000000001    0.0000000000000000 H
   0.7899200000000000    0.1030210000000000    0.2059010000000000 H
   0.8205540000000000    0.0574539000000000    0.2714350000000000 H
   0.7899200000000000    0.8969790000000000    0.2059010000000000 H
   0.8205540000000000    0.9425460999999999    0.2714350000000000 H
   0.7483409999999999    0.0000000000000000    0.1582890000000000 H
   0.7100800000000000    0.8969790000000000    0.2940990000000000 H
   0.6794460000000000    0.9425460999999999    0.2285650000000000 H
   0.7100800000000000    0.1030210000000000    0.2940990000000000 H
   0.6794460000000000    0.0574539000000000    0.2285650000000000 H
   0.7516590000000001    0.0000000000000000    0.3417110000000000 H
   0.1030210000000000    0.2059010000000000    0.7899200000000000 H
   0.0574539000000000    0.2714350000000000    0.8205540000000000 H
   0.8969790000000000    0.2059010000000000    0.7899200000000000 H
   0.9425460999999999    0.2714350000000000    0.8205540000000000 H
   0.0000000000000000    0.1582890000000000    0.7483409999999999 H
   0.1030210000000000    0.2940990000000000    0.7100800000000000 H
   0.0574539000000000    0.2285650000000000    0.6794460000000000 H
   0.8969790000000000    0.2940990000000000    0.7100800000000000 H
   0.9425460999999999    0.2285650000000000    0.6794460000000000 H
   0.0000000000000000    0.3417110000000000    0.7516590000000001 H
   0.2100800000000000    0.6030210000000000    0.2940990000000000 H
   0.1794460000000000    0.5574539000000001    0.2285650000000000 H
   0.2100800000000000    0.3969790000000000    0.2940990000000000 H
   0.1794460000000000    0.4425461000000000    0.2285650000000000 H
   0.2516590000000000    0.5000000000000000    0.3417110000000000 H
   0.2899200000000000    0.6030210000000000    0.2059010000000000 H
   0.3205540000000000    0.5574539000000001    0.2714350000000000 H
   0.2899200000000000    0.3969790000000000    0.2059010000000000 H
   0.3205540000000000    0.4425461000000000    0.2714350000000000 H
   0.2483410000000000    0.5000000000000000    0.1582890000000000 H
   0.3969790000000000    0.7940990000000000    0.7100800000000000 H
   0.4425461000000000    0.7285650000000000    0.6794460000000000 H
   0.6030210000000000    0.7940990000000000    0.7100800000000000 H
   0.5574539000000001    0.7285650000000000    0.6794460000000000 H
   0.5000000000000000    0.8417110000000000    0.7516590000000001 H
   0.3969790000000000    0.7059010000000000    0.7899200000000000 H
   0.4425461000000000    0.7714350000000000    0.8205540000000000 H
   0.6030210000000000    0.7059010000000000    0.7899200000000000 H
   0.5574539000000001    0.7714350000000000    0.8205540000000000 H
   0.5000000000000000    0.6582890000000000    0.7483409999999999 H
   0.7059010000000000    0.7100800000000000    0.1030210000000000 H
   0.7714350000000000    0.6794460000000000    0.0574539000000000 H
   0.7059010000000000    0.7100800000000000    0.8969790000000000 H
   0.7714350000000000    0.6794460000000000    0.9425460999999999 H
   0.6582890000000000    0.7516590000000001    0.0000000000000000 H
   0.7940990000000000    0.7899200000000000    0.8969790000000000 H
   0.7285650000000000    0.8205540000000000    0.9425460999999999 H
   0.7940990000000000    0.7899200000000000    0.1030210000000000 H
   0.7285650000000000    0.8205540000000000    0.0574539000000000 H
   0.8417110000000000    0.7483409999999999    0.0000000000000000 H
   0.7059010000000000    0.2899200000000000    0.1030210000000000 H
   0.7714350000000000    0.3205540000000000    0.0574539000000000 H
   0.7059010000000000    0.2899200000000000    0.8969790000000000 H
   0.7714350000000000    0.3205540000000000    0.9425460999999999 H
   0.6582890000000000    0.2483410000000000    0.0000000000000000 H
   0.7940990000000000    0.2100800000000000    0.1030210000000000 H
   0.7285650000000000    0.1794460000000000    0.0574539000000000 H
   0.7940990000000000    0.2100800000000000    0.8969790000000000 H
   0.7285650000000000    0.1794460000000000    0.9425460999999999 H
   0.8417110000000000    0.2516590000000000    0.0000000000000000 H
   0.3969790000000000    0.7940990000000000    0.2899200000000000 H
   0.4425461000000000    0.7285650000000000    0.3205540000000000 H
   0.6030210000000000    0.7940990000000000    0.2899200000000000 H
   0.5574539000000001    0.7285650000000000    0.3205540000000000 H
   0.5000000000000000    0.8417110000000000    0.2483410000000000 H
   0.3969790000000000    0.7059010000000000    0.2100800000000000 H
   0.4425461000000000    0.7714350000000000    0.1794460000000000 H
   0.6030210000000000    0.7059010000000000    0.2100800000000000 H
   0.5574539000000001    0.7714350000000000    0.1794460000000000 H
   0.5000000000000000    0.6582890000000000    0.2516590000000000 H
   0.7059010000000000    0.7899200000000000    0.3969790000000000 H
   0.7714350000000000    0.8205540000000000    0.4425461000000000 H
   0.7059010000000000    0.7899200000000000    0.6030210000000000 H
   0.7714350000000000    0.8205540000000000    0.5574539000000001 H
   0.6582890000000000    0.7483409999999999    0.5000000000000000 H
   0.7940990000000000    0.7100800000000000    0.6030210000000000 H
   0.7285650000000000    0.6794460000000000    0.5574539000000001 H
   0.7940990000000000    0.7100800000000000    0.3969790000000000 H
   0.7285650000000000    0.6794460000000000    0.4425461000000000 H
   0.8417110000000000    0.7516590000000001    0.5000000000000000 H
   0.6030210000000000    0.2059010000000000    0.2899200000000000 H
   0.5574539000000001    0.2714350000000000    0.3205540000000000 H
   0.3969790000000000    0.2059010000000000    0.2899200000000000 H
   0.4425461000000000    0.2714350000000000    0.3205540000000000 H
   0.5000000000000000    0.1582890000000000    0.2483410000000000 H
   0.3969790000000000    0.2940990000000000    0.2100800000000000 H
   0.4425461000000000    0.2285650000000000    0.1794460000000000 H
   0.6030210000000000    0.2940990000000000    0.2100800000000000 H
   0.5574539000000001    0.2285650000000000    0.1794460000000000 H
   0.5000000000000000    0.3417110000000000    0.2516590000000000 H
   0.7899200000000000    0.8969790000000000    0.7940990000000000 H
   0.8205540000000000    0.9425460999999999    0.7285650000000000 H
   0.7899200000000000    0.1030210000000000    0.7940990000000000 H
   0.8205540000000000    0.0574539000000000    0.7285650000000000 H
   0.7483409999999999    0.0000000000000000    0.8417110000000000 H
   0.7100800000000000    0.1030210000000000    0.7059010000000000 H
   0.6794460000000000    0.0574539000000000    0.7714350000000000 H
   0.7100800000000000    0.8969790000000000    0.7059010000000000 H
   0.6794460000000000    0.9425460999999999    0.7714350000000000 H
   0.7516590000000001    0.0000000000000000    0.6582890000000000 H
   0.2899200000000000    0.1030210000000000    0.7059010000000000 H
   0.3205540000000000    0.0574539000000000    0.7714350000000000 H
   0.2899200000000000    0.8969790000000000    0.7059010000000000 H
   0.3205540000000000    0.9425460999999999    0.7714350000000000 H
   0.2483410000000000    0.0000000000000000    0.6582890000000000 H
   0.2100800000000000    0.1030210000000000    0.7940990000000000 H
   0.1794460000000000    0.0574539000000000    0.7285650000000000 H
   0.2100800000000000    0.8969790000000000    0.7940990000000000 H
   0.1794460000000000    0.9425460999999999    0.7285650000000000 H
   0.2516590000000000    0.0000000000000000    0.8417110000000000 H
   0.7059010000000000    0.2100800000000000    0.6030210000000000 H
   0.7714350000000000    0.1794460000000000    0.5574539000000001 H
   0.7059010000000000    0.2100800000000000    0.3969790000000000 H
   0.7714350000000000    0.1794460000000000    0.4425461000000000 H
   0.6582890000000000    0.2516590000000000    0.5000000000000000 H
   0.7940990000000000    0.2899200000000000    0.3969790000000000 H
   0.7285650000000000    0.3205540000000000    0.4425461000000000 H
   0.7940990000000000    0.2899200000000000    0.6030210000000000 H
   0.7285650000000000    0.3205540000000000    0.5574539000000001 H
   0.8417110000000000    0.2483410000000000    0.5000000000000000 H
   0.1030210000000000    0.2059010000000000    0.2100800000000000 H
   0.0574539000000000    0.2714350000000000    0.1794460000000000 H
   0.8969790000000000    0.2059010000000000    0.2100800000000000 H
   0.9425460999999999    0.2714350000000000    0.1794460000000000 H
   0.0000000000000000    0.1582890000000000    0.2516590000000000 H
   0.1030210000000000    0.2940990000000000    0.2899200000000000 H
   0.0574539000000000    0.2285650000000000    0.3205540000000000 H
   0.8969790000000000    0.2940990000000000    0.2899200000000000 H
   0.9425460999999999    0.2285650000000000    0.3205540000000000 H
   0.0000000000000000    0.3417110000000000    0.2483410000000000 H
   0.2940990000000000    0.2899200000000000    0.1030210000000000 H
   0.2285650000000000    0.3205540000000000    0.0574539000000000 H
   0.2940990000000000    0.2899200000000000    0.8969790000000000 H
   0.2285650000000000    0.3205540000000000    0.9425460999999999 H
   0.3417110000000000    0.2483410000000000    0.0000000000000000 H
   0.2059010000000000    0.2100800000000000    0.1030210000000000 H
   0.2714350000000000    0.1794460000000000    0.0574539000000000 H
   0.2059010000000000    0.2100800000000000    0.8969790000000000 H
   0.2714350000000000    0.1794460000000000    0.9425460999999999 H
   0.1582890000000000    0.2516590000000000    0.0000000000000000 H
   0.2100800000000000    0.8969790000000000    0.2059010000000000 H
   0.1794460000000000    0.9425460999999999    0.2714350000000000 H
   0.2100800000000000    0.1030210000000000    0.2059010000000000 H
   0.1794460000000000    0.0574539000000000    0.2714350000000000 H
   0.2516590000000000    0.0000000000000000    0.1582890000000000 H
   0.2899200000000000    0.1030210000000000    0.2940990000000000 H
   0.3205540000000000    0.0574539000000000    0.2285650000000000 H
   0.2899200000000000    0.8969790000000000    0.2940990000000000 H
   0.3205540000000000    0.9425460999999999    0.2285650000000000 H
   0.2483410000000000    0.0000000000000000    0.3417110000000000 H
   0.2940990000000000    0.2100800000000000    0.6030210000000000 H
   0.2285650000000000    0.1794460000000000    0.5574539000000001 H
   0.2940990000000000    0.2100800000000000    0.3969790000000000 H
   0.2285650000000000    0.1794460000000000    0.4425461000000000 H
   0.3417110000000000    0.2516590000000000    0.5000000000000000 H
   0.2059010000000000    0.2899200000000000    0.3969790000000000 H
   0.2714350000000000    0.3205540000000000    0.4425461000000000 H
   0.2059010000000000    0.2899200000000000    0.6030210000000000 H
   0.2714350000000000    0.3205540000000000    0.5574539000000001 H
   0.1582890000000000    0.2483410000000000    0.5000000000000000 H
   0.7100800000000000    0.6030210000000000    0.7940990000000000 H
   0.6794460000000000    0.5574539000000001    0.7285650000000000 H
   0.7100800000000000    0.3969790000000000    0.7940990000000000 H
   0.6794460000000000    0.4425461000000000    0.7285650000000000 H
   0.7516590000000001    0.5000000000000000    0.8417110000000000 H
   0.7899200000000000    0.6030210000000000    0.7059010000000000 H
   0.8205540000000000    0.5574539000000001    0.7714350000000000 H
   0.7899200000000000    0.3969790000000000    0.7059010000000000 H
   0.8205540000000000    0.4425461000000000    0.7714350000000000 H
   0.7483409999999999    0.5000000000000000    0.6582890000000000 H
   0.1030210000000000    0.7940990000000000    0.7899200000000000 H
   0.0574539000000000    0.7285650000000000    0.8205540000000000 H
   0.8969790000000000    0.7940990000000000    0.7899200000000000 H
   0.9425460999999999    0.7285650000000000    0.8205540000000000 H
   0.0000000000000000    0.8417110000000000    0.7483409999999999 H
   0.1030210000000000    0.7059010000000000    0.7100800000000000 H
   0.0574539000000000    0.7714350000000000    0.6794460000000000 H
   0.8969790000000000    0.7059010000000000    0.7100800000000000 H
   0.9425460999999999    0.7714350000000000    0.6794460000000000 H
   0.0000000000000000    0.6582890000000000    0.7516590000000001 H
   0.1030210000000000    0.7059010000000000    0.2899200000000000 H
   0.0574539000000000    0.7714350000000000    0.3205540000000000 H
   0.8969790000000000    0.7059010000000000    0.2899200000000000 H
   0.9425460999999999    0.7714350000000000    0.3205540000000000 H
   0.0000000000000000    0.6582890000000000    0.2483410000000000 H
   0.1030210000000000    0.7940990000000000    0.2100800000000000 H
   0.0574539000000000    0.7285650000000000    0.1794460000000000 H
   0.8969790000000000    0.7940990000000000    0.2100800000000000 H
   0.9425460999999999    0.7285650000000000    0.1794460000000000 H
   0.0000000000000000    0.8417110000000000    0.2516590000000000 H
   0.2899200000000000    0.3969790000000000    0.7940990000000000 H
   0.3205540000000000    0.4425461000000000    0.7285650000000000 H
   0.2899200000000000    0.6030210000000000    0.7940990000000000 H
   0.3205540000000000    0.5574539000000001    0.7285650000000000 H
   0.2483410000000000    0.5000000000000000    0.8417110000000000 H
   0.2100800000000000    0.6030210000000000    0.7059010000000000 H
   0.1794460000000000    0.5574539000000001    0.7714350000000000 H
   0.2100800000000000    0.3969790000000000    0.7059010000000000 H
   0.1794460000000000    0.4425461000000000    0.7714350000000000 H
   0.2516590000000000    0.5000000000000000    0.6582890000000000 H
   0.4134430424135525    0.4134430424135525   -0.0865569575864475 H
   0.5865569575864475    0.4134430424135525    0.0865569575864476 H
   0.4134430424135525    0.5865569575864475    0.0865569575864475 H
   0.5865569575864474    0.5865569575864475   -0.0865569575864475 H
   0.4134430424135524    0.9134430424135525    0.4134430424135525 H
   0.5865569575864475    0.9134430424135525    0.5865569575864474 H
   0.4134430424135524    1.0865569575864475    0.5865569575864474 H
   0.5865569575864474    1.0865569575864475    0.4134430424135524 H
   0.9134430424135526    0.9134430424135525   -0.0865569575864475 H
   1.0865569575864475    0.9134430424135525    0.0865569575864475 H
   0.9134430424135526    1.0865569575864475    0.0865569575864475 H
   1.0865569575864475    1.0865569575864475   -0.0865569575864475 H
  -0.0865569575864475    0.4134430424135525    0.4134430424135525 H
   0.0865569575864475    0.4134430424135525    0.5865569575864475 H
  -0.0865569575864475    0.5865569575864475    0.5865569575864475 H
   0.0865569575864475    0.5865569575864475    0.4134430424135525 H
   0.4406000000000000    0.2658000000000000    0.7838000000000001 C
   0.5594000000000000    0.2658000000000000    0.7838000000000001 C
   0.5000000000000000    0.3100000000000000    0.7900000000000000 C
   0.5000000000000000    0.3530000000000000    0.8500000000000000 C
   0.5594000000000000    0.2342000000000000    0.7161999999999999 C
   0.4406000000000000    0.2342000000000000    0.7161999999999999 C
   0.5000000000000000    0.1900000000000000    0.7100000000000000 C
   0.5000000000000000    0.1470000000000000    0.6500000000000000 C
   0.2658000000000000    0.7838000000000001    0.4406000000000000 C
   0.2658000000000000    0.7838000000000001    0.5594000000000000 C
   0.3100000000000000    0.7900000000000000    0.5000000000000000 C
   0.3530000000000000    0.8500000000000000    0.5000000000000000 C
   0.2342000000000000    0.7161999999999999    0.5594000000000000 C
   0.2342000000000000    0.7161999999999999    0.4406000000000000 C
   0.1900000000000000    0.7100000000000000    0.5000000000000000 C
   0.1470000000000000    0.6500000000000000    0.5000000000000000 C
   0.7838000000000001    0.5594000000000000    0.2658000000000000 C
   0.7838000000000001    0.4406000000000000    0.2658000000000000 C
   0.7900000000000000    0.5000000000000000    0.3100000000000000 C
   0.8500000000000000    0.5000000000000000    0.3530000000000000 C
   0.7161999999999999    0.5594000000000000    0.2342000000000000 C
   0.7161999999999999    0.4406000000000000    0.2342000000000000 C
   0.7100000000000000    0.5000000000000000    0.1900000000000000 C
   0.6500000000000000    0.5000000000000000    0.1470000000000000 C
   0.2342000000000000    0.7838000000000001    0.0594000000000000 C
   0.2342000000000000    0.7838000000000001    0.9406000000000000 C
   0.1900000000000000    0.7900000000000000    0.0000000000000000 C
   0.1470000000000000    0.8500000000000000    0.0000000000000000 C
   0.2658000000000000    0.7161999999999999    0.0594000000000000 C
   0.2658000000000000    0.7161999999999999    0.9406000000000000 C
   0.3100000000000000    0.7100000000000000    0.0000000000000000 C
   0.3530000000000000    0.6500000000000000    0.0000000000000000 C
   0.7838000000000001    0.0594000000000000    0.2342000000000000 C
   0.7838000000000001    0.9406000000000000    0.2342000000000000 C
   0.7900000000000000    0.0000000000000000    0.1900000000000000 C
   0.8500000000000000    0.0000000000000000    0.1470000000000000 C
   0.7161999999999999    0.9406000000000000    0.2658000000000000 C
   0.7161999999999999    0.0594000000000000    0.2658000000000000 C
   0.7100000000000000    0.0000000000000000    0.3100000000000000 C
   0.6500000000000000    0.0000000000000000    0.3530000000000000 C
   0.0594000000000000    0.2342000000000000    0.7838000000000001 C
   0.9406000000000000    0.2342000000000000    0.7838000000000001 C
   0.0000000000000000    0.1900000000000000    0.7900000000000000 C
   0.0000000000000000    0.1470000000000000    0.8500000000000000 C
   0.0594000000000000    0.2658000000000000    0.7161999999999999 C
   0.9406000000000000    0.2658000000000000    0.7161999999999999 C
   0.0000000000000000    0.3100000000000000    0.7100000000000000 C
   0.0000000000000000    0.3530000000000000    0.6500000000000000 C
   0.2162000000000000    0.5594000000000000    0.2658000000000000 C
   0.2162000000000000    0.4406000000000000    0.2658000000000000 C
   0.2100000000000000    0.5000000000000000    0.3100000000000000 C
   0.1500000000000000    0.5000000000000000    0.3530000000000000 C
   0.2838000000000000    0.5594000000000000    0.2342000000000000 C
   0.2838000000000000    0.4406000000000000    0.2342000000000000 C
   0.2900000000000000    0.5000000000000000    0.1900000000000000 C
   0.3500000000000000    0.5000000000000000    0.1470000000000000 C
   0.4406000000000000    0.7658000000000000    0.7161999999999999 C
   0.5594000000000000    0.7658000000000000    0.7161999999999999 C
   0.5000000000000000    0.8100000000000001    0.7100000000000000 C
   0.5000000000000000    0.8530000000000000    0.6500000000000000 C
   0.4406000000000000    0.7342000000000000    0.7838000000000001 C
   0.5594000000000000    0.7342000000000000    0.7838000000000001 C
   0.5000000000000000    0.6899999999999999    0.7900000000000000 C
   0.5000000000000000    0.6470000000000000    0.8500000000000000 C
   0.7342000000000000    0.7161999999999999    0.0594000000000000 C
   0.7342000000000000    0.7161999999999999    0.9406000000000000 C
   0.6899999999999999    0.7100000000000000    0.0000000000000000 C
   0.6470000000000000    0.6500000000000000    0.0000000000000000 C
   0.7658000000000000    0.7838000000000001    0.9406000000000000 C
   0.7658000000000000    0.7838000000000001    0.0594000000000000 C
   0.8100000000000001    0.7900000000000000    0.0000000000000000 C
   0.8530000000000000    0.8500000000000000    0.0000000000000000 C
   0.7342000000000000    0.2838000000000000    0.0594000000000000 C
   0.7342000000000000    0.2838000000000000    0.9406000000000000 C
   0.6899999999999999    0.2900000000000000    0.0000000000000000 C
   0.6470000000000000    0.3500000000000000    0.0000000000000000 C
   0.7658000000000000    0.2162000000000000    0.0594000000000000 C
   0.7658000000000000    0.2162000000000000    0.9406000000000000 C
   0.8100000000000001    0.2100000000000000    0.0000000000000000 C
   0.8530000000000000    0.1500000000000000    0.0000000000000000 C
   0.4406000000000000    0.7658000000000000    0.2838000000000000 C
   0.5594000000000000    0.7658000000000000    0.2838000000000000 C
   0.5000000000000000    0.8100000000000001    0.2900000000000000 C
   0.5000000000000000    0.8530000000000000    0.3500000000000000 C
   0.4406000000000000    0.7342000000000000    0.2162000000000000 C
   0.5594000000000000    0.7342000000000000    0.2162000000000000 C
   0.5000000000000000    0.6899999999999999    0.2100000000000000 C
   0.5000000000000000    0.6470000000000000    0.1500000000000000 C
   0.7342000000000000    0.7838000000000001    0.4406000000000000 C
   0.7342000000000000    0.7838000000000001    0.5594000000000000 C
   0.6899999999999999    0.7900000000000000    0.5000000000000000 C
   0.6470000000000000    0.8500000000000000    0.5000000000000000 C
   0.7658000000000000    0.7161999999999999    0.5594000000000000 C
   0.7658000000000000    0.7161999999999999    0.4406000000000000 C
   0.8100000000000001    0.7100000000000000    0.5000000000000000 C
   0.8530000000000000    0.6500000000000000    0.5000000000000000 C
   0.5594000000000000    0.2342000000000000    0.2838000000000000 C
   0.4406000000000000    0.2342000000000000    0.2838000000000000 C
   0.5000000000000000    0.1900000000000000    0.2900000000000000 C
   0.5000000000000000    0.1470000000000000    0.3500000000000000 C
   0.4406000000000000    0.2658000000000000    0.2162000000000000 C
   0.5594000000000000    0.2658000000000000    0.2162000000000000 C
   0.5000000000000000    0.3100000000000000    0.2100000000000000 C
   0.5000000000000000    0.3530000000000000    0.1500000000000000 C
   0.7838000000000001    0.9406000000000000    0.7658000000000000 C
   0.7838000000000001    0.0594000000000000    0.7658000000000000 C
   0.7900000000000000    0.0000000000000000    0.8100000000000001 C
   0.8500000000000000    0.0000000000000000    0.8530000000000000 C
   0.7161999999999999    0.0594000000000000    0.7342000000000000 C
   0.7161999999999999    0.9406000000000000    0.7342000000000000 C
   0.7100000000000000    0.0000000000000000    0.6899999999999999 C
   0.6500000000000000    0.0000000000000000    0.6470000000000000 C
   0.2838000000000000    0.0594000000000000    0.7342000000000000 C
   0.2838000000000000    0.9406000000000000    0.7342000000000000 C
   0.2900000000000000    0.0000000000000000    0.6899999999999999 C
   0.3500000000000000    0.0000000000000000    0.6470000000000000 C
   0.2162000000000000    0.0594000000000000    0.7658000000000000 C
   0.2162000000000000    0.9406000000000000    0.7658000000000000 C
   0.2100000000000000    0.0000000000000000    0.8100000000000001 C
   0.1500000000000000    0.0000000000000000    0.8530000000000000 C
   0.7342000000000000    0.2162000000000000    0.5594000000000000 C
   0.7342000000000000    0.2162000000000000    0.4406000000000000 C
   0.6899999999999999    0.2100000000000000    0.5000000000000000 C
   0.6470000000000000    0.1500000000000000    0.5000000000000000 C
   0.7658000000000000    0.2838000000000000    0.4406000000000000 C
   0.7658000000000000    0.2838000000000000    0.5594000000000000 C
   0.8100000000000001    0.2900000000000000    0.5000000000000000 C
   0.8530000000000000    0.3500000000000000    0.5000000000000000 C
   0.0594000000000000    0.2342000000000000    0.2162000000000000 C
   0.9406000000000000    0.2342000000000000    0.2162000000000000 C
   0.0000000000000000    0.1900000000000000    0.2100000000000000 C
   0.0000000000000000    0.1470000000000000    0.1500000000000000 C
   0.0594000000000000    0.2658000000000000    0.2838000000000000 C
   0.9406000000000000    0.2658000000000000    0.2838000000000000 C
   0.0000000000000000    0.3100000000000000    0.2900000000000000 C
   0.0000000000000000    0.3530000000000000    0.3500000000000000 C
   0.2658000000000000    0.2838000000000000    0.0594000000000000 C
   0.2658000000000000    0.2838000000000000    0.9406000000000000 C
   0.3100000000000000    0.2900000000000000    0.0000000000000000 C
   0.3530000000000000    0.3500000000000000    0.0000000000000000 C
   0.2342000000000000    0.2162000000000000    0.0594000000000000 C
   0.2342000000000000    0.2162000000000000    0.9406000000000000 C
   0.1900000000000000    0.2100000000000000    0.0000000000000000 C
   0.1470000000000000    0.1500000000000000    0.0000000000000000 C
   0.2162000000000000    0.9406000000000000    0.2342000000000000 C
   0.2162000000000000    0.0594000000000000    0.2342000000000000 C
   0.2100000000000000    0.0000000000000000    0.1900000000000000 C
   0.1500000000000000    0.0000000000000000    0.1470000000000000 C
   0.2838000000000000    0.0594000000000000    0.2658000000000000 C
   0.2838000000000000    0.9406000000000000    0.2658000000000000 C
   0.2900000000000000    0.0000000000000000    0.3100000000000000 C
   0.3500000000000000    0.0000000000000000    0.3530000000000000 C
   0.2658000000000000    0.2162000000000000    0.5594000000000000 C
   0.2658000000000000    0.2162000000000000    0.4406000000000000 C
   0.3100000000000000    0.2100000000000000    0.5000000000000000 C
   0.3530000000000000    0.1500000000000000    0.5000000000000000 C
   0.2342000000000000    0.2838000000000000    0.4406000000000000 C