Zn12 H120 C96 N48
1.0
  16.8508999999999993    0.0000000000000000    0.0000000000000010
  -0.0000000000000010   16.8508999999999993    0.0000000000000010
   0.0000000000000000    0.0000000000000000   16.8508999999999993
C N C N C N C N C N C N C N C N Zn C N Zn C N Zn C N C N C N Zn C N Zn C N C N C N Zn C N Zn C N Zn C N C N Zn C N C N Zn C N H
4 2 4 2 4 2 4 2 4 2 4 2 4 2 4 2 1 4 2 1 4 2 1 4 2 4 2 4 2 1 4 2 3 4 2 4 2 4 2 1 4 2 1 4 2 1 4 2 4 2 1 4 2 4 2 1 4 2 120
direct
   0.4015000000000000    0.4015000000000000    0.9139000000000000 C
   0.3160000000000000    0.3724000000000000    0.1088000000000000 C
   0.3724000000000000    0.3160000000000000    0.1088000000000000 C
   0.3760000000000000    0.3760000000000000    0.9947000000000000 C
   0.4117000000000000    0.3173000000000000    0.0357000000000000 N
   0.3173000000000000    0.4117000000000000    0.0357000000000000 N
   0.9139000000000000    0.5985000000000000    0.5985000000000000 C
   0.1088000000000000    0.6839999999999999    0.6276000000000000 C
   0.1088000000000000    0.6276000000000000    0.6839999999999999 C
   0.9947000000000000    0.6240000000000000    0.6240000000000000 C
   0.0357000000000000    0.5883000000000000    0.6827000000000000 N
   0.0357000000000000    0.6827000000000000    0.5883000000000000 N
   0.9139000000000000    0.4015000000000000    0.4015000000000000 C
   0.1088000000000000    0.3724000000000000    0.3160000000000000 C
   0.1088000000000000    0.3160000000000000    0.3724000000000000 C
   0.9947000000000000    0.3760000000000000    0.3760000000000000 C
   0.0357000000000000    0.3173000000000000    0.4117000000000000 N
   0.0357000000000000    0.4117000000000000    0.3173000000000000 N
   0.5985000000000000    0.5985000000000000    0.9139000000000000 C
   0.6839999999999999    0.6276000000000000    0.1088000000000000 C
   0.6276000000000000    0.6839999999999999    0.1088000000000000 C
   0.6240000000000000    0.6240000000000000    0.9947000000000000 C
   0.6827000000000000    0.5883000000000000    0.0357000000000000 N
   0.5883000000000000    0.6827000000000000    0.0357000000000000 N
   0.5985000000000000    0.9139000000000000    0.5985000000000000 C
   0.6839999999999999    0.1088000000000000    0.6276000000000000 C
   0.6276000000000000    0.1088000000000000    0.6839999999999999 C
   0.6240000000000000    0.9947000000000000    0.6240000000000000 C
   0.5883000000000000    0.0357000000000000    0.6827000000000000 N
   0.6827000000000000    0.0357000000000000    0.5883000000000000 N
   0.4015000000000000    0.9139000000000000    0.4015000000000000 C
   0.3724000000000000    0.1088000000000000    0.3160000000000000 C
   0.3160000000000000    0.1088000000000000    0.3724000000000000 C
   0.3760000000000000    0.9947000000000000    0.3760000000000000 C
   0.3173000000000000    0.0357000000000000    0.4117000000000000 N
   0.4117000000000000    0.0357000000000000    0.3173000000000000 N
   0.5861000000000000    0.9015000000000000    0.0985000000000000 C
   0.3912000000000000    0.8724000000000000    0.1840000000000000 C
   0.3912000000000000    0.8160000000000001    0.1276000000000002 C
   0.5053000000000000    0.8760000000000000    0.1240000000000001 C
   0.4643000000000000    0.9117000000000000    0.1827000000000000 N
   0.4643000000000000    0.8173000000000000    0.0883000000000000 N
   0.4015000000000000    0.0861000000000000    0.5985000000000000 C
   0.3724000000000000    0.8912000000000000    0.6839999999999999 C
   0.3160000000000000    0.8912000000000000    0.6276000000000000 C
   0.3760000000000000    0.0053000000000000    0.6240000000000000 C
   0.3173000000000000    0.9643000000000000    0.5883000000000000 N
   0.4117000000000000    0.9643000000000000    0.6827000000000000 N
   0.5000000000000000    0.7500000000000000    0.0000000000000000 Zn
   0.4139000000000000    0.9015000000000000    0.9015000000000000 C
   0.6088000000000000    0.8160000000000001    0.8724000000000000 C
   0.6088000000000000    0.8724000000000000    0.8160000000000001 C
   0.4947000000000000    0.8760000000000000    0.8760000000000000 C
   0.5357000000000000    0.9117000000000000    0.8173000000000000 N
   0.5357000000000000    0.8173000000000000    0.9117000000000000 N
   0.5000000000000000    0.0000000000000000    0.7500000000000000 Zn
   0.5861000000000000    0.0985000000000000    0.9015000000000000 C
   0.3912000000000000    0.1840000000000000    0.8724000000000000 C
   0.3912000000000000    0.1276000000000002    0.8160000000000001 C
   0.5053000000000000    0.1240000000000001    0.8760000000000000 C
   0.4643000000000000    0.1827000000000000    0.9117000000000000 N
   0.4643000000000000    0.0883000000000000    0.8173000000000000 N
   0.5000000000000000    0.2500000000000000    0.0000000000000000 Zn
   0.4139000000000000    0.0985000000000000    0.0985000000000000 C
   0.6088000000000000    0.1840000000000000    0.1276000000000002 C
   0.6088000000000000    0.1276000000000002    0.1840000000000000 C
   0.4947000000000000    0.1240000000000001    0.1240000000000001 C
   0.5357000000000000    0.1827000000000000    0.0883000000000000 N
   0.5357000000000000    0.0883000000000000    0.1827000000000000 N
   0.5985000000000000    0.4015000000000000    0.0861000000000000 C
   0.6839999999999999    0.3724000000000000    0.8912000000000000 C
   0.6276000000000000    0.3160000000000000    0.8912000000000000 C
   0.6240000000000000    0.3760000000000000    0.0053000000000000 C
   0.5883000000000000    0.3173000000000000    0.9643000000000000 N
   0.6827000000000000    0.4117000000000000    0.9643000000000000 N
   0.4015000000000000    0.5985000000000000    0.0861000000000000 C
   0.3724000000000000    0.6839999999999999    0.8912000000000000 C
   0.3160000000000000    0.6276000000000000    0.8912000000000000 C
   0.3760000000000000    0.6240000000000000    0.0053000000000000 C
   0.3173000000000000    0.5883000000000000    0.9643000000000000 N
   0.4117000000000000    0.6827000000000000    0.9643000000000000 N
   0.0000000000000000    0.2500000000000000    0.5000000000000000 Zn
   0.0985000000000000    0.0985000000000000    0.4139000000000000 C
   0.1840000000000000    0.1276000000000002    0.6088000000000000 C
   0.1276000000000002    0.1840000000000000    0.6088000000000000 C
   0.1240000000000001    0.1240000000000001    0.4947000000000000 C
   0.1827000000000000    0.0883000000000000    0.5357000000000000 N
   0.0883000000000000    0.1827000000000000    0.5357000000000000 N
   0.2500000000000000    0.0000000000000000    0.5000000000000000 Zn
   0.0000000000000000    0.5000000000000000    0.2500000000000000 Zn
   0.5000000000000000    0.0000000000000000    0.2500000000000000 Zn
   0.5985000000000000    0.0861000000000000    0.4015000000000000 C
   0.6276000000000000    0.8912000000000000    0.3160000000000000 C
   0.6839999999999999    0.8912000000000000    0.3724000000000000 C
   0.6240000000000000    0.0053000000000000    0.3760000000000000 C
   0.6827000000000000    0.9643000000000000    0.4117000000000000 N
   0.5883000000000000    0.9643000000000000    0.3173000000000000 N
   0.0861000000000000    0.5985000000000000    0.4015000000000000 C
   0.8912000000000000    0.6839999999999999    0.3724000000000000 C
   0.8912000000000000    0.6276000000000000    0.3160000000000000 C
   0.0053000000000000    0.6240000000000000    0.3760000000000000 C
   0.9643000000000000    0.5883000000000000    0.3173000000000000 N
   0.9643000000000000    0.6827000000000000    0.4117000000000000 N
   0.9015000000000000    0.9015000000000000    0.4139000000000000 C
   0.8160000000000001    0.8724000000000000    0.6088000000000000 C
   0.8724000000000000    0.8160000000000001    0.6088000000000000 C
   0.8760000000000000    0.8760000000000000    0.4947000000000000 C
   0.8173000000000000    0.9117000000000000    0.5357000000000000 N
   0.9117000000000000    0.8173000000000000    0.5357000000000000 N
   0.7500000000000000    0.0000000000000000    0.5000000000000000 Zn
   0.9015000000000000    0.0985000000000000    0.5861000000000000 C
   0.8724000000000000    0.1840000000000000    0.3912000000000000 C
   0.8160000000000001    0.1276000000000002    0.3912000000000000 C
   0.8760000000000000    0.1240000000000001    0.5053000000000000 C
   0.9117000000000000    0.1827000000000000    0.4643000000000000 N
   0.8173000000000000    0.0883000000000000    0.4643000000000000 N
   0.0000000000000000    0.7500000000000000    0.5000000000000000 Zn
   0.0985000000000000    0.9015000000000000    0.5861000000000000 C
   0.1840000000000000    0.8724000000000000    0.3912000000000000 C
   0.1276000000000002    0.8160000000000001    0.3912000000000000 C
   0.1240000000000001    0.8760000000000000    0.5053000000000000 C
   0.1827000000000000    0.9117000000000000    0.4643000000000000 N
   0.0883000000000000    0.8173000000000000    0.4643000000000000 N
   0.2500000000000000    0.5000000000000000    0.0000000000000000 Zn
   0.0985000000000000    0.4139000000000000    0.0985000000000000 C
   0.1840000000000000    0.6088000000000000    0.1276000000000002 C
   0.1276000000000002    0.6088000000000000    0.1840000000000000 C
   0.1240000000000001    0.4947000000000000    0.1240000000000001 C
   0.1827000000000000    0.5357000000000000    0.0883000000000000 N
   0.0883000000000000    0.5357000000000000    0.1827000000000000 N
   0.0861000000000000    0.4015000000000000    0.5985000000000000 C
   0.8912000000000000    0.3724000000000000    0.6839999999999999 C
   0.8912000000000000    0.3160000000000000    0.6276000000000000 C
   0.0053000000000000    0.3760000000000000    0.6240000000000000 C
   0.9643000000000000    0.3173000000000000    0.5883000000000000 N
   0.9643000000000000    0.4117000000000000    0.6827000000000000 N
   0.0000000000000000    0.5000000000000000    0.7500000000000000 Zn
   0.0985000000000000    0.5861000000000000    0.9015000000000000 C
   0.1840000000000000    0.3912000000000000    0.8724000000000000 C
   0.1276000000000002    0.3912000000000000    0.8160000000000001 C
   0.1240000000000001    0.5053000000000000    0.8760000000000000 C
   0.1827000000000000    0.4643000000000000    0.9117000000000000 N
   0.0883000000000000    0.4643000000000000    0.8173000000000000 N
   0.9015000000000000    0.5861000000000000    0.0985000000000000 C
   0.8724000000000000    0.3912000000000000    0.1840000000000000 C
   0.8160000000000001    0.3912000000000000    0.1276000000000002 C
   0.8760000000000000    0.5053000000000000    0.1240000000000001 C
   0.9117000000000000    0.4643000000000000    0.1827000000000000 N
   0.8173000000000000    0.4643000000000000    0.0883000000000000 N
   0.7500000000000000    0.5000000000000000    0.0000000000000000 Zn
   0.9015000000000000    0.4139000000000000    0.9015000000000000 C
   0.8160000000000001    0.6088000000000000    0.8724000000000000 C
   0.8724000000000000    0.6088000000000000    0.8160000000000001 C
   0.8760000000000000    0.4947000000000000    0.8760000000000000 C
   0.9117000000000000    0.5357000000000000    0.8173000000000000 N
   0.8173000000000000    0.5357000000000000    0.9117000000000000 N
   0.4380000000000001    0.4380000000000001    0.9161000000000000 H
   0.3622000000000000    0.4208999999999999    0.8867499999999999 H
   0.4208999999999999    0.3622000000000000    0.8867499999999999 H
   0.2817000000000000    0.3835000000000000    0.1506000000000000 H
   0.3835000000000000    0.2817000000000000    0.1506000000000000 H
   0.9161000000000000    0.5619999999999999    0.5619999999999999 H
   0.8867499999999999    0.6378000000000000    0.5790999999999999 H
   0.8867499999999999    0.5790999999999999    0.6378000000000000 H
   0.1506000000000000    0.7182999999999999    0.6165000000000000 H
   0.1506000000000000    0.6165000000000000    0.7182999999999999 H
   0.9161000000000000    0.4380000000000001    0.4380000000000001 H
   0.8867499999999999    0.4208999999999999    0.3622000000000000 H
   0.8867499999999999    0.3622000000000000    0.4208999999999999 H
   0.1506000000000000    0.3835000000000000    0.2817000000000000 H
   0.1506000000000000    0.2817000000000000    0.3835000000000000 H
   0.5619999999999999    0.5619999999999999    0.9161000000000000 H
   0.6378000000000000    0.5790999999999999    0.8867499999999999 H
   0.5790999999999999    0.6378000000000000    0.8867499999999999 H
   0.7182999999999999    0.6165000000000000    0.1506000000000000 H
   0.6165000000000000    0.7182999999999999    0.1506000000000000 H
   0.5619999999999999    0.9161000000000000    0.5619999999999999 H
   0.5790999999999999    0.8867499999999999    0.6378000000000000 H
   0.6378000000000000    0.8867499999999999    0.5790999999999999 H
   0.7182999999999999    0.1506000000000000    0.6165000000000000 H
   0.6165000000000000    0.1506000000000000    0.7182999999999999 H
   0.4380000000000001    0.9161000000000000    0.4380000000000001 H
   0.4208999999999999    0.8867499999999999    0.3622000000000000 H
   0.3622000000000000    0.8867499999999999    0.4208999999999999 H
   0.3835000000000000    0.1506000000000000    0.2817000000000000 H
   0.2817000000000000    0.1506000000000000    0.3835000000000000 H
   0.5839000000000000    0.9380000000000001    0.0620000000000000 H
   0.6132500000000001    0.8622000000000000    0.0791000000000000 H
   0.6132500000000001    0.9209000000000001    0.1378000000000000 H
   0.3494000000000000    0.8835000000000000    0.2183000000000000 H
   0.3494000000000000    0.7817000000000001    0.1165000000000000 H
   0.4380000000000001    0.0839000000000000    0.5619999999999999 H
   0.4208999999999999    0.1132500000000000    0.6378000000000000 H
   0.3622000000000000    0.1132500000000000    0.5790999999999999 H
   0.3835000000000000    0.8493999999999999    0.7182999999999999 H
   0.2817000000000000    0.8493999999999999    0.6165000000000000 H
   0.4161000000000000    0.9380000000000001    0.9380000000000001 H
   0.3867500000000000    0.8622000000000000    0.9209000000000001 H
   0.3867500000000000    0.9209000000000001    0.8622000000000000 H
   0.6506000000000001    0.7817000000000001    0.8835000000000000 H
   0.6506000000000001    0.8835000000000000    0.7817000000000001 H
   0.5839000000000000    0.0620000000000000    0.9380000000000001 H
   0.6132500000000001    0.0791000000000000    0.8622000000000000 H
   0.6132500000000001    0.1378000000000000    0.9209000000000001 H
   0.3494000000000000    0.2183000000000000    0.8835000000000000 H
   0.3494000000000000    0.1165000000000000    0.7817000000000001 H
   0.4161000000000000    0.0620000000000000    0.0620000000000000 H
   0.3867500000000000    0.1378000000000000    0.0791000000000000 H
   0.3867500000000000    0.0791000000000000    0.1378000000000000 H
   0.6506000000000001    0.2183000000000000    0.1165000000000000 H
   0.6506000000000001    0.1165000000000000    0.2183000000000000 H
   0.5619999999999999    0.4380000000000001    0.0839000000000000 H
   0.6378000000000000    0.4208999999999999    0.1132500000000000 H
   0.5790999999999999    0.3622000000000000    0.1132500000000000 H
   0.7182999999999999    0.3835000000000000    0.8493999999999999 H
   0.6165000000000000    0.2817000000000000    0.8493999999999999 H
   0.4380000000000001    0.5619999999999999    0.0839000000000000 H
   0.4208999999999999    0.6378000000000000    0.1132500000000000 H
   0.3622000000000000    0.5790999999999999    0.1132500000000000 H
   0.3835000000000000    0.7182999999999999    0.8493999999999999 H
   0.2817000000000000    0.6165000000000000    0.8493999999999999 H
   0.0620000000000000    0.0620000000000000    0.4161000000000000 H
   0.1378000000000000    0.0791000000000000    0.3867500000000000 H
   0.0791000000000000    0.1378000000000000    0.3867500000000000 H
   0.2183000000000000    0.1165000000000000    0.6506000000000001 H
   0.1165000000000000    0.2183000000000000    0.6506000000000001 H
   0.5619999999999999    0.0839000000000000    0.4380000000000001 H
   0.6378000000000000    0.1132500000000000    0.4208999999999999 H
   0.5790999999999999    0.1132500000000000    0.3622000000000000 H
   0.6165000000000000    0.8493999999999999    0.2817000000000000 H
   0.7182999999999999    0.8493999999999999    0.3835000000000000 H
   0.0839000000000000    0.5619999999999999    0.4380000000000001 H
   0.1132500000000000    0.6378000000000000    0.4208999999999999 H
   0.1132500000000000    0.5790999999999999    0.3622000000000000 H
   0.8493999999999999    0.7182999999999999    0.3835000000000000 H
   0.8493999999999999    0.6165000000000000    0.2817000000000000 H
   0.9380000000000001    0.9380000000000001    0.4161000000000000 H
   0.8622000000000000    0.9209000000000001    0.3867500000000000 H
   0.9209000000000001    0.8622000000000000    0.3867500000000000 H
   0.7817000000000001    0.8835000000000000    0.6506000000000001 H
   0.8835000000000000    0.7817000000000001    0.6506000000000001 H
   0.9380000000000001    0.0620000000000000    0.5839000000000000 H
   0.8622000000000000    0.0791000000000000    0.6132500000000001 H
   0.9209000000000001    0.1378000000000000    0.6132500000000001 H
   0.8835000000000000    0.2183000000000000    0.3494000000000000 H
   0.7817000000000001    0.1165000000000000    0.3494000000000000 H
   0.0620000000000000    0.9380000000000001    0.5839000000000000 H
   0.0791000000000000    0.8622000000000000    0.6132500000000001 H
   0.1378000000000000    0.9209000000000001    0.6132500000000001 H
   0.2183000000000000    0.8835000000000000    0.3494000000000000 H
   0.1165000000000000    0.7817000000000001    0.3494000000000000 H
   0.0620000000000000    0.4161000000000000    0.0620000000000000 H
   0.0791000000000000    0.3867500000000000    0.1378000000000000 H
   0.1378000000000000    0.3867500000000000    0.0791000000000000 H
   0.2183000000000000    0.6506000000000001    0.1165000000000000 H
   0.1165000000000000    0.6506000000000001    0.2183000000000000 H
   0.0839000000000000    0.4380000000000001    0.5619999999999999 H
   0.1132500000000000    0.4208999999999999    0.6378000000000000 H
   0.1132500000000000    0.3622000000000000    0.5790999999999999 H
   0.8493999999999999    0.3835000000000000    0.7182999999999999 H
   0.8493999999999999    0.2817000000000000    0.6165000000000000 H
   0.0620000000000000    0.5839000000000000    0.9380000000000001 H
   0.0791000000000000    0.6132500000000001    0.8622000000000000 H
   0.1378000000000000    0.6132500000000001    0.9209000000000001 H
   0.2183000000000000    0.3494000000000000    0.8835000000000000 H
   0.1165000000000000    0.3494000000000000    0.7817000000000001 H
   0.9380000000000001    0.5839000000000000    0.0620000000000000 H
   0.8622000000000000    0.6132500000000001    0.0791000000000000 H
   0.9209000000000001    0.6132500000000001    0.1378000000000000 H
   0.8835000000000000    0.3494000000000000    0.2183000000000000 H
   0.7817000000000001    0.3494000000000000    0.1165000000000000 H
   0.9380000000000001    0.4161000000000000    0.9380000000000001 H
   0.9209000000000001    0.3867500000000000    0.8622000000000000 H
   0.8622000000000000    0.3867500000000000    0.9209000000000001 H
   0.7817000000000001    0.6506000000000001    0.8835000000000000 H
   0.8835000000000000    0.6506000000000001    0.7817000000000001 H
