Si12 O24
1.0
  16.8508999999999993    0.0000000000000000    0.0000000000000010
  -0.0000000000000010   16.8508999999999993    0.0000000000000010
   0.0000000000000000    0.0000000000000000   16.8508999999999993
O Si O Si O Si O Si O Si O Si O Si O Si O Si O Si O
8 1 1 1 1 1 3 1 1 3 3 1 1 1 1 1 2 1 2 1 1
direct
   0.3710181800000000    0.3710181800000000    0.0171272700000000 O
   0.0171272700000000    0.6289818200000000    0.6289818200000000 O
   0.0171272700000000    0.3710181800000000    0.3710181800000000 O
   0.6289818200000000    0.6289818200000000    0.0171272700000000 O
   0.6289818200000000    0.0171272700000000    0.6289818200000000 O
   0.3710181800000000    0.0171272700000000    0.3710181800000000 O
   0.4828727300000000    0.8710181800000000    0.1289818200000000 O
   0.3710181800000000    0.9828727300000000    0.6289818200000000 O
   0.5000000000000000    0.7500000000000000    0.0000000000000000 Si
   0.5171272700000000    0.8710181800000000    0.8710181800000000 O
   0.5000000000000000    0.0000000000000000    0.7500000000000000 Si
   0.4828727300000000    0.1289818200000000    0.8710181800000000 O
   0.5000000000000000    0.2500000000000000    0.0000000000000000 Si
   0.5171272700000000    0.1289818200000000    0.1289818200000000 O
   0.6289818200000000    0.3710181800000000    0.9828727300000000 O
   0.3710181800000000    0.6289818200000000    0.9828727300000000 O
   0.0000000000000000    0.2500000000000000    0.5000000000000000 Si
   0.1289818200000000    0.1289818200000000    0.5171272700000000 O
   0.2500000000000000    0.0000000000000000    0.5000000000000000 Si
   0.0000000000000000    0.5000000000000000    0.2500000000000000 Si
   0.5000000000000000    0.0000000000000000    0.2500000000000000 Si
   0.6289818200000000    0.9828727300000000    0.3710181800000000 O
   0.9828727300000000    0.6289818200000000    0.3710181800000000 O
   0.8710181800000000    0.8710181800000000    0.5171272700000000 O
   0.7500000000000000    0.0000000000000000    0.5000000000000000 Si
   0.8710181800000000    0.1289818200000000    0.4828727300000000 O
   0.0000000000000000    0.7500000000000000    0.5000000000000000 Si
   0.1289818200000000    0.8710181800000000    0.4828727300000000 O
   0.2500000000000000    0.5000000000000000    0.0000000000000000 Si
   0.1289818200000000    0.5171272700000000    0.1289818200000000 O
   0.9828727300000000    0.3710181800000000    0.6289818200000000 O
   0.0000000000000000    0.5000000000000000    0.7500000000000000 Si
   0.1289818200000000    0.4828727300000000    0.8710181800000000 O
   0.8710181800000000    0.4828727300000000    0.1289818200000000 O
   0.7500000000000000    0.5000000000000000    0.0000000000000000 Si
   0.8710181800000000    0.5171272700000000    0.8710181800000000 O
